100 8
793 42
191 278
120 807
575 505
551 291
840 83
536 407
803 512
690 758
99 603
666 769
813 688
856 159
712 908
843 305
219 594
133 221
799 526
192 758
44 485
601 807
751 638
471 199
624 596
140 553
352 764
834 633
325 833
139 299
736 137
829 308
814 728
353 82
773 200
752 625
828 519
395 872
756 812
188 822
322 749
220 644
169 309
332 26
36 586
395 843
136 422
859 313
690 412
905 564
713 770
811 218
133 622
628 529
749 252
207 926
434 820
763 222
205 620
824 523
798 438
738 659
446 850
243 811
887 325
63 538
439 116
448 200
815 650
165 253
272 795
803 158
275 712
884 650
467 125
598 134
978 417
126 602
835 250
876 75
427 79
561 534
345 784
257 716
817 666
706 454
625 882
195 233
558 798
407 758
157 600
240 211
136 124
873 262
209 822
582 210
211 753
650 402
642 944
192 835
900 95
